
Gurobi 7.5.2 (linux64) logging started Sat Jul  7 16:00:25 2018

Changed value of parameter LogFile to result/ilp/simNo_9-n_100-m_40-s_4-minVAF_0.05-cov_10000-k_2-fn_0.10-fp_0.0001-na_0.15.ILP.gurobiSolverLog
   Prev: gurobi.log  Default: 
Changed value of parameter TimeLimit to 86400.0
   Prev: 1e+100  Min: 0.0  Max: 1e+100  Default: 1e+100
Optimize a model with 639293 rows, 10765 columns and 1940420 nonzeros
Variable types: 0 continuous, 10765 integer (10765 binary)
Coefficient statistics:
  Matrix range     [2e-04, 4e+00]
  Objective range  [5e-01, 9e+00]
  Bounds range     [1e+00, 1e+00]
  RHS range        [3e-01, 2e+00]
Found heuristic solution: objective -14151.63108
Presolve removed 132209 rows and 1025 columns (presolve time = 5s) ...
Presolve removed 132789 rows and 1025 columns (presolve time = 12s) ...
Presolve removed 190789 rows and 1605 columns (presolve time = 15s) ...
Presolve removed 190789 rows and 1605 columns
Presolve time: 18.11s
Presolved: 448504 rows, 9160 columns, 1348165 nonzeros
Variable types: 0 continuous, 9160 integer (9160 binary)
Presolved: 9160 rows, 457664 columns, 1357325 nonzeros

Presolve removed 9160 rows and 457664 columns

Root simplex log...

Iteration    Objective       Primal Inf.    Dual Inf.      Time
       0    1.4254703e+01   0.000000e+00   6.719000e+04     22s
   19532   -2.2507100e+02   0.000000e+00   2.149712e+04     25s
   28583   -2.4626722e+02   0.000000e+00   0.000000e+00     29s
   28583   -2.4626722e+02   0.000000e+00   0.000000e+00     30s

Root relaxation: objective -2.462672e+02, 28583 iterations, 9.49 seconds
Total elapsed time = 30.39s
Total elapsed time = 76.27s
Total elapsed time = 108.57s
Total elapsed time = 131.72s

    Nodes    |    Current Node    |     Objective Bounds      |     Work
 Expl Unexpl |  Obj  Depth IntInf | Incumbent    BestBd   Gap | It/Node Time

     0     0 -246.26722    0  616 -14151.631 -246.26722  98.3%     -  142s
H    0     0                    -310.2438277 -246.26722  20.6%     -  146s
H    0     0                    -289.7459411 -246.26722  15.0%     -  149s
     0     0 -251.39169    0  617 -289.74594 -251.39169  13.2%     -  184s
     0     0 -255.03854    0  786 -289.74594 -255.03854  12.0%     -  334s
H    0     0                    -287.4683982 -255.03854  11.3%     -  341s
     0     0 -255.27446    0  840 -287.46840 -255.27446  11.2%     -  443s
     0     0 -255.27592    0  839 -287.46840 -255.27592  11.2%     -  447s
     0     0 -257.22172    0  988 -287.46840 -257.22172  10.5%     - 3338s
     0     0 -257.23753    0  810 -287.46840 -257.23753  10.5%     - 3362s
     0     0 -258.51266    0  854 -287.46840 -258.51266  10.1%     - 4573s
     0     0 -258.67163    0  718 -287.46840 -258.67163  10.0%     - 4649s
     0     0 -259.04074    0  906 -287.46840 -259.04074  9.89%     - 5276s
     0     0 -259.04694    0  937 -287.46840 -259.04694  9.89%     - 5592s
     0     0 -260.96978    0  888 -287.46840 -260.96978  9.22%     - 11036s
     0     0 -260.96978    0  885 -287.46840 -260.96978  9.22%     - 11047s
     0     0 -261.26584    0  961 -287.46840 -261.26584  9.11%     - 11509s
     0     0 -261.32875    0  927 -287.46840 -261.32875  9.09%     - 11776s
     0     0 -261.33485    0  930 -287.46840 -261.33485  9.09%     - 11912s
     0     0 -262.47362    0  949 -287.46840 -262.47362  8.69%     - 16324s
     0     0 -262.56477    0  937 -287.46840 -262.56477  8.66%     - 16476s
     0     0 -262.57115    0  981 -287.46840 -262.57115  8.66%     - 16496s
     0     0 -262.57115    0  981 -287.46840 -262.57115  8.66%     - 16498s
     0     0 -263.54768    0  932 -287.46840 -263.54768  8.32%     - 17840s
     0     0 -263.58730    0  969 -287.46840 -263.58730  8.31%     - 17898s
     0     0 -263.75441    0  909 -287.46840 -263.75441  8.25%     - 18250s
     0     0 -263.77255    0  874 -287.46840 -263.77255  8.24%     - 18280s
     0     0 -263.77255    0  875 -287.46840 -263.77255  8.24%     - 18283s
     0     0 -264.54512    0  877 -287.46840 -264.54512  7.97%     - 20917s
     0     0 -264.98871    0  870 -287.46840 -264.98871  7.82%     - 23912s
     0     0 -265.02995    0  816 -287.46840 -265.02995  7.81%     - 24020s
     0     0 -265.09619    0  811 -287.46840 -265.09619  7.78%     - 24090s
     0     0 -265.11669    0  813 -287.46840 -265.11669  7.78%     - 25249s
     0     0 -265.11669    0  812 -287.46840 -265.11669  7.78%     - 25252s
     0     0 -265.86496    0  810 -287.46840 -265.86496  7.52%     - 25514s
     0     0 -266.25335    0  814 -287.46840 -266.25335  7.38%     - 26205s
     0     0 -266.42889    0  809 -287.46840 -266.42889  7.32%     - 26571s
     0     0 -266.42889    0  809 -287.46840 -266.42889  7.32%     - 26573s
     0     0 -267.17236    0  807 -287.46840 -267.17236  7.06%     - 27218s
     0     0 -267.28634    0  815 -287.46840 -267.28634  7.02%     - 27422s
     0     0 -267.30024    0  817 -287.46840 -267.30024  7.02%     - 27502s
     0     0 -268.15746    0  773 -287.46840 -268.15746  6.72%     - 32553s
     0     0 -268.62340    0  886 -287.46840 -268.62340  6.56%     - 34535s
     0     0 -268.68277    0  888 -287.46840 -268.68277  6.53%     - 34553s
     0     0 -268.68745    0  888 -287.46840 -268.68745  6.53%     - 34558s
     0     0 -268.70591    0  889 -287.46840 -268.70591  6.53%     - 34600s
     0     0 -268.70591    0  884 -287.46840 -268.70591  6.53%     - 34609s
H    0     0                    -287.0575908 -268.70591  6.39%     - 34615s
     0     0 -268.71346    0  885 -287.05759 -268.71346  6.39%     - 34631s
     0     0 -268.71850    0  888 -287.05759 -268.71850  6.39%     - 34649s
     0     0 -268.83734    0  888 -287.05759 -268.83734  6.35%     - 34807s
H    0     0                    -284.7800478 -268.83734  5.60%     - 34817s
     0     0 -268.90139    0  888 -284.78005 -268.90139  5.58%     - 34831s
     0     0 -268.90292    0  889 -284.78005 -268.90292  5.58%     - 34838s
     0     0 -269.11797    0  738 -284.78005 -269.11797  5.50%     - 36308s
     0     0 -269.44079    0  872 -284.78005 -269.44079  5.39%     - 36456s
     0     0 -269.46257    0  864 -284.78005 -269.46257  5.38%     - 36492s
     0     0 -269.50924    0  868 -284.78005 -269.50924  5.36%     - 36518s
     0     0 -269.56767    0  870 -284.78005 -269.56767  5.34%     - 36620s
     0     0 -269.57810    0  869 -284.78005 -269.57810  5.34%     - 36632s
     0     0 -269.59402    0  870 -284.78005 -269.59402  5.33%     - 36647s
     0     0 -269.60883    0  870 -284.78005 -269.60883  5.33%     - 36665s
     0     0 -269.60976    0  871 -284.78005 -269.60976  5.33%     - 36668s
     0     0 -269.65166    0  868 -284.78005 -269.65166  5.31%     - 36719s
     0     0 -269.93599    0  860 -284.78005 -269.93599  5.21%     - 39310s
     0     0 -270.00290    0  865 -284.78005 -270.00290  5.19%     - 39357s
     0     0 -270.00709    0  836 -284.78005 -270.00709  5.19%     - 39384s
     0     0 -270.00709    0  839 -284.78005 -270.00709  5.19%     - 39386s
     0     0 -270.16314    0  721 -284.78005 -270.16314  5.13%     - 39588s
     0     0 -270.50900    0  723 -284.78005 -270.50900  5.01%     - 40737s
     0     0 -270.75729    0  971 -284.78005 -270.75729  4.92%     - 42348s
     0     0 -270.82039    0  852 -284.78005 -270.82039  4.90%     - 42692s
     0     0 -270.86176    0  939 -284.78005 -270.86176  4.89%     - 42983s
     0     0 -270.86258    0  843 -284.78005 -270.86258  4.89%     - 42987s
     0     0 -270.90260    0  846 -284.78005 -270.90260  4.87%     - 43149s
     0     0 -270.92094    0  840 -284.78005 -270.92094  4.87%     - 43280s
     0     0 -270.92094    0  842 -284.78005 -270.92094  4.87%     - 43283s
     0     0 -271.05311    0  834 -284.78005 -271.05311  4.82%     - 44031s
     0     0 -271.08639    0  869 -284.78005 -271.08639  4.81%     - 44292s
     0     0 -271.15537    0  930 -284.78005 -271.15537  4.78%     - 44501s
     0     0 -271.16605    0  927 -284.78005 -271.16605  4.78%     - 44533s
     0     0 -271.16605    0  927 -284.78005 -271.16605  4.78%     - 44536s
     0     0 -271.37832    0  924 -284.78005 -271.37832  4.71%     - 45359s
     0     0 -271.45632    0  927 -284.78005 -271.45632  4.68%     - 46034s
     0     0 -271.46081    0  838 -284.78005 -271.46081  4.68%     - 46057s
     0     0 -271.48500    0  837 -284.78005 -271.48500  4.67%     - 46188s
     0     0 -271.48500    0  839 -284.78005 -271.48500  4.67%     - 46191s
     0     0 -271.48500    0  841 -284.78005 -271.48500  4.67%     - 46199s
     0     0 -271.48500    0  841 -284.78005 -271.48500  4.67%     - 46208s
     0     0 -271.67192    0  837 -284.78005 -271.67192  4.60%     - 46475s
     0     0 -271.71069    0  837 -284.78005 -271.71069  4.59%     - 46558s
     0     0 -271.78053    0  830 -284.78005 -271.78053  4.56%     - 47414s
     0     0 -271.78940    0  833 -284.78005 -271.78940  4.56%     - 47435s
     0     0 -271.78950    0  834 -284.78005 -271.78950  4.56%     - 47438s
     0     0 -271.78950    0  837 -284.78005 -271.78950  4.56%     - 47446s
     0     0 -271.94764    0  820 -284.78005 -271.94764  4.51%     - 47999s
     0     0 -272.02010    0  827 -284.78005 -272.02010  4.48%     - 48632s
     0     0 -272.02010    0  827 -284.78005 -272.02010  4.48%     - 48635s
     0     0 -272.02010    0  831 -284.78005 -272.02010  4.48%     - 48643s
     0     0 -272.02010    0  831 -284.78005 -272.02010  4.48%     - 48651s
     0     0 -272.09301    0  830 -284.78005 -272.09301  4.46%     - 49154s
     0     0 -272.15479    0  832 -284.78005 -272.15479  4.43%     - 49420s
     0     0 -272.16670    0  832 -284.78005 -272.16670  4.43%     - 49471s
     0     0 -272.17763    0  826 -284.78005 -272.17763  4.43%     - 49499s
     0     0 -272.17763    0  828 -284.78005 -272.17763  4.43%     - 49502s
     0     0 -272.21048    0  732 -284.78005 -272.21048  4.41%     - 49589s
     0     0 -272.22495    0  820 -284.78005 -272.22495  4.41%     - 49703s
     0     0 -272.22495    0  824 -284.78005 -272.22495  4.41%     - 49710s
     0     0 -272.83768    0  735 -284.78005 -272.83768  4.19%     - 54032s
     0     0 -272.86990    0  752 -284.78005 -272.86990  4.18%     - 54052s
     0     0 -272.89344    0  836 -284.78005 -272.89344  4.17%     - 54080s
     0     0 -272.89802    0  849 -284.78005 -272.89802  4.17%     - 54107s
     0     0 -272.89962    0  938 -284.78005 -272.89962  4.17%     - 54142s
     0     0 -273.05897    0  840 -284.78005 -273.05897  4.12%     - 54498s
     0     0 -273.09957    0  840 -284.78005 -273.09957  4.10%     - 54592s
     0     0 -273.12849    0  845 -284.78005 -273.12849  4.09%     - 54800s
     0     0 -273.13479    0  837 -284.78005 -273.13479  4.09%     - 54854s
     0     0 -273.13533    0  841 -284.78005 -273.13533  4.09%     - 54866s
     0     0 -273.13764    0  736 -284.78005 -273.13764  4.09%     - 54940s
     0     0 -273.13764    0  736 -284.78005 -273.13764  4.09%     - 54946s
     0     0 -273.13764    0  740 -284.78005 -273.13764  4.09%     - 54953s
     0     0 -273.13764    0  700 -284.78005 -273.13764  4.09%     - 55636s
     0     2 -273.13785    0  697 -284.78005 -273.13785  4.09%     - 55793s
     1     3 -273.23593    1  707 -284.78005 -273.13857  4.09%  2944 55802s
     2     4 -273.70085    2  767 -284.78005 -273.13857  4.09%  2481 55810s
     3     5 -275.66988    3  315 -284.78005 -273.13857  4.09%  1895 55815s
     8    10 -277.94742    8  262 -284.78005 -273.13857  4.09%   760 55831s
     9    11 -279.08619    9  260 -284.78005 -273.13857  4.09%   712 55835s
    12    12     cutoff   11      -284.78005 -273.13857  4.09%   881 55846s
    14    12     cutoff   12      -284.78005 -273.13857  4.09%  1015 55855s
    15    13 -282.50250   13  229 -284.78005 -273.13857  4.09%  1062 55860s
    16    14 -283.64128   14  227 -284.78005 -273.13857  4.09%  1010 55866s
    20    12 -282.36483    1  697 -284.78005 -273.23647  4.05%  1678 55995s
    22    10     cutoff    2      -284.78005 -273.23647  4.05%  1582 56001s
    23    11 -283.63395    2  589 -284.78005 -273.71939  3.88%  2007 56044s
    25     9     cutoff    3      -284.78005 -273.71939  3.88%  1858 56045s
    26     8     cutoff    3      -284.78005 -275.66988  3.20%  2433 56130s
    27     9 -282.50250    4  171 -284.78005 -275.66988  3.20%  2490 56142s
    32     6     cutoff    5      -284.78005 -276.80865  2.80%  2272 56157s
    33     5     cutoff    8      -284.78005 -276.80865  2.80%  2310 56167s
    34     4     cutoff    7      -284.78005 -276.89912  2.77%  2380 56184s
    35     5 -283.28691    6  278 -284.78005 -277.94742  2.40%  2346 56187s
    41     1     cutoff   10      -284.78005 -280.40625  1.54%  2028 56191s

Cutting planes:
  Gomory: 3
  MIR: 1
  StrongCG: 1
  Zero half: 100

Explored 45 nodes (2094091 simplex iterations) in 56194.15 seconds
Thread count was 1 (of 80 available processors)

Solution count 6: -284.78 -287.058 -287.468 ... -14151.6

Optimal solution found (tolerance 1.00e-04)
Best objective -2.847800478164e+02, best bound -2.847800478164e+02, gap 0.0000%
